c
c start with comments
c
p cnf 41 30
-24 -43 -21 -32 -31 0
-13 -20 0
12 -41 19 0
23 10 12 0
-8 -6 35 0
-12 3 10 -38 0
20 31 0
-31 8 -2 -25 0
-23 -18 -41 -2 29 0
29 -38 -42 0
-18 15 35 0
-1 -31 -4 -14 43 0
6 6 0
-40 -22 14 -37 33 0
-21 -12 7 10 0
-35 -16 0
-28 36 0
11 2 -38 33 22 0
18 -30 0
37 42 0
34 33 26 4 7 0
7 -19 -29 0
-39 13 0
-6 -32 3 4 0
-40 5 27 -32 0
-26 25 0
30 -10 0
5 -1 3 -12 0
-23 -3 39 0
39 -38 -31 0